db/data/189532165918431325812051527660646918104.z3.out
sat
-------------------
84.768690043
